;; translated from ./bv/num_conversion_1_safe.c.vmt
;; original benchmark available at: https://es-static.fbk.eu/people/griggio/ic3ia/index.html
;; author: Alberto Griggio <griggio@fbk.eu>
(set-logic HORN)
(declare-fun state (Bool Bool Bool (_ BitVec 8) (_ BitVec 8) (_ BitVec 32) (_ BitVec 32) (_ BitVec 32) (_ BitVec 8) (_ BitVec 8) (_ BitVec 8)) Bool)
(assert (forall ((|.PC.0.next| Bool) (|.PC.1.next| Bool) (|.PC.2.next| Bool) (|c__6$main| (_ BitVec 8)) (|c__6$main.next| (_ BitVec 8)) (|x__2$main| (_ BitVec 8)) (|i__8$main.next| (_ BitVec 8)) (|bit__9$main.next| (_ BitVec 8)) (|y__4$main| (_ BitVec 8)) (|y__4$main.next| (_ BitVec 8)) (|__RET__$main.next| (_ BitVec 32)) (|__RET__$main| (_ BitVec 32)) (|x__2$main.next| (_ BitVec 8)) (|__INLINE_TEMP__0$main.next| (_ BitVec 32)) (|__INLINE_TEMP__0$main| (_ BitVec 32)) (|cond__11$main.next| (_ BitVec 32)) (|cond__11$main| (_ BitVec 32)) (|i__8$main| (_ BitVec 8)) (|bit__9$main| (_ BitVec 8)) (|.PC.2| Bool) (|.PC.1| Bool) (|.PC.0| Bool)) (=> (let ((.def_15 (not .PC.2)))
(let ((.def_12 (not .PC.1)))
(let ((.def_10 (not .PC.0)))
(let ((.def_13 (and .def_10 .def_12)))
(let ((.def_16 (and .def_13 .def_15)))
.def_16))))) (state |.PC.0| |.PC.1| |.PC.2| |bit__9$main| |i__8$main| |__RET__$main| |__INLINE_TEMP__0$main| |cond__11$main| |x__2$main| |y__4$main| |c__6$main|))))
(assert (forall ((|.PC.0.next| Bool) (|.PC.1.next| Bool) (|.PC.2.next| Bool) (|c__6$main| (_ BitVec 8)) (|c__6$main.next| (_ BitVec 8)) (|x__2$main| (_ BitVec 8)) (|i__8$main.next| (_ BitVec 8)) (|bit__9$main.next| (_ BitVec 8)) (|y__4$main| (_ BitVec 8)) (|y__4$main.next| (_ BitVec 8)) (|__RET__$main.next| (_ BitVec 32)) (|__RET__$main| (_ BitVec 32)) (|x__2$main.next| (_ BitVec 8)) (|__INLINE_TEMP__0$main.next| (_ BitVec 32)) (|__INLINE_TEMP__0$main| (_ BitVec 32)) (|cond__11$main.next| (_ BitVec 32)) (|cond__11$main| (_ BitVec 32)) (|i__8$main| (_ BitVec 8)) (|bit__9$main| (_ BitVec 8)) (|.PC.2| Bool) (|.PC.1| Bool) (|.PC.0| Bool)) (=> (and (state |.PC.0| |.PC.1| |.PC.2| |bit__9$main| |i__8$main| |__RET__$main| |__INLINE_TEMP__0$main| |cond__11$main| |x__2$main| |y__4$main| |c__6$main|) (let ((.def_12 (not .PC.1)))
(let ((.def_149 (and .PC.0 .def_12)))
(let ((.def_161 (and .PC.2 .def_149)))
(let ((.def_54 (not .PC.1.next)))
(let ((.def_56 (and .def_54 .PC.0.next)))
(let ((.def_115 (and .PC.2.next .def_56)))
(let ((.def_162 (and .def_115 .def_161)))
(let ((.def_121 ((_ zero_extend 24) c__6$main)))
(let ((.def_139 (bvadd (_ bv1 32) .def_121)))
(let ((.def_140 ((_ extract 7 0) .def_139)))
(let ((.def_141 (= c__6$main.next .def_140)))
(let ((.def_126 (bvand i__8$main.next x__2$main)))
(let ((.def_127 (= bit__9$main.next .def_126)))
(let ((.def_122 (bvshl (_ bv1 32) .def_121)))
(let ((.def_123 ((_ extract 7 0) .def_122)))
(let ((.def_124 (= i__8$main.next .def_123)))
(let ((.def_128 (and .def_124 .def_127)))
(let ((.def_119 (= bit__9$main.next (_ bv0 8))))
(let ((.def_136 (and .def_119 .def_128)))
(let ((.def_99 (= y__4$main.next y__4$main)))
(let ((.def_137 (and .def_99 .def_136)))
(let ((.def_130 ((_ zero_extend 24) i__8$main.next)))
(let ((.def_80 ((_ zero_extend 24) y__4$main)))
(let ((.def_132 (bvadd .def_80 .def_130)))
(let ((.def_133 ((_ extract 7 0) .def_132)))
(let ((.def_134 (= y__4$main.next .def_133)))
(let ((.def_120 (not .def_119)))
(let ((.def_129 (and .def_120 .def_128)))
(let ((.def_135 (and .def_129 .def_134)))
(let ((.def_138 (or .def_135 .def_137)))
(let ((.def_142 (and .def_138 .def_141)))
(let ((.def_27 ((_ zero_extend 24) c__6$main.next)))
(let ((.def_29 (bvslt .def_27 (_ bv8 32))))
(let ((.def_60 (not .def_29)))
(let ((.def_153 (and .def_60 .def_142)))
(let ((.def_41 (= __RET__$main __RET__$main.next)))
(let ((.def_154 (and .def_41 .def_153)))
(let ((.def_93 (= x__2$main.next x__2$main)))
(let ((.def_155 (and .def_93 .def_154)))
(let ((.def_45 (= __INLINE_TEMP__0$main __INLINE_TEMP__0$main.next)))
(let ((.def_156 (and .def_45 .def_155)))
(let ((.def_49 (= cond__11$main cond__11$main.next)))
(let ((.def_157 (and .def_49 .def_156)))
(let ((.def_67 (not .PC.0.next)))
(let ((.def_68 (and .PC.1.next .def_67)))
(let ((.def_52 (not .PC.2.next)))
(let ((.def_69 (and .def_52 .def_68)))
(let ((.def_158 (and .def_69 .def_157)))
(let ((.def_15 (not .PC.2)))
(let ((.def_150 (and .def_15 .def_149)))
(let ((.def_159 (and .def_150 .def_158)))
(let ((.def_143 (and .def_29 .def_142)))
(let ((.def_144 (and .def_41 .def_143)))
(let ((.def_145 (and .def_93 .def_144)))
(let ((.def_146 (and .def_45 .def_145)))
(let ((.def_147 (and .def_49 .def_146)))
(let ((.def_57 (and .def_52 .def_56)))
(let ((.def_148 (and .def_57 .def_147)))
(let ((.def_151 (and .def_148 .def_150)))
(let ((.def_37 (= i__8$main i__8$main.next)))
(let ((.def_33 (= bit__9$main bit__9$main.next)))
(let ((.def_108 (and .def_33 .def_37)))
(let ((.def_109 (and .def_41 .def_108)))
(let ((.def_110 (and .def_93 .def_109)))
(let ((.def_111 (and .def_45 .def_110)))
(let ((.def_97 (= c__6$main.next c__6$main)))
(let ((.def_112 (and .def_97 .def_111)))
(let ((.def_113 (and .def_49 .def_112)))
(let ((.def_114 (and .def_99 .def_113)))
(let ((.def_116 (and .def_114 .def_115)))
(let ((.def_106 (and .PC.0 .PC.1)))
(let ((.def_107 (and .def_15 .def_106)))
(let ((.def_117 (and .def_107 .def_116)))
(let ((.def_101 (and .PC.1.next .PC.0.next)))
(let ((.def_102 (and .def_52 .def_101)))
(let ((.def_84 (= cond__11$main.next (_ bv1 32))))
(let ((.def_85 (not .def_84)))
(let ((.def_78 ((_ zero_extend 24) x__2$main)))
(let ((.def_81 (= .def_78 .def_80)))
(let ((.def_86 (and .def_81 .def_85)))
(let ((.def_87 (not .def_86)))
(let ((.def_76 (= cond__11$main.next (_ bv0 32))))
(let ((.def_82 (or .def_76 .def_81)))
(let ((.def_88 (and .def_82 .def_87)))
(let ((.def_89 (and .def_76 .def_88)))
(let ((.def_90 (and .def_33 .def_89)))
(let ((.def_91 (and .def_37 .def_90)))
(let ((.def_92 (and .def_41 .def_91)))
(let ((.def_94 (and .def_92 .def_93)))
(let ((.def_95 (and .def_45 .def_94)))
(let ((.def_98 (and .def_95 .def_97)))
(let ((.def_100 (and .def_98 .def_99)))
(let ((.def_103 (and .def_100 .def_102)))
(let ((.def_10 (not .PC.0)))
(let ((.def_73 (and .def_10 .PC.1)))
(let ((.def_74 (and .def_15 .def_73)))
(let ((.def_104 (and .def_74 .def_103)))
(let ((.def_25 (= c__6$main.next (_ bv0 8))))
(let ((.def_22 (= y__4$main.next (_ bv0 8))))
(let ((.def_19 (= x__2$main.next (_ bv37 8))))
(let ((.def_23 (and .def_19 .def_22)))
(let ((.def_26 (and .def_23 .def_25)))
(let ((.def_61 (and .def_26 .def_60)))
(let ((.def_62 (and .def_33 .def_61)))
(let ((.def_63 (and .def_37 .def_62)))
(let ((.def_64 (and .def_41 .def_63)))
(let ((.def_65 (and .def_45 .def_64)))
(let ((.def_66 (and .def_49 .def_65)))
(let ((.def_70 (and .def_66 .def_69)))
(let ((.def_13 (and .def_10 .def_12)))
(let ((.def_16 (and .def_13 .def_15)))
(let ((.def_71 (and .def_16 .def_70)))
(let ((.def_30 (and .def_26 .def_29)))
(let ((.def_34 (and .def_30 .def_33)))
(let ((.def_38 (and .def_34 .def_37)))
(let ((.def_42 (and .def_38 .def_41)))
(let ((.def_46 (and .def_42 .def_45)))
(let ((.def_50 (and .def_46 .def_49)))
(let ((.def_58 (and .def_50 .def_57)))
(let ((.def_59 (and .def_16 .def_58)))
(let ((.def_72 (or .def_59 .def_71)))
(let ((.def_105 (or .def_72 .def_104)))
(let ((.def_118 (or .def_105 .def_117)))
(let ((.def_152 (or .def_118 .def_151)))
(let ((.def_160 (or .def_152 .def_159)))
(let ((.def_163 (or .def_160 .def_162)))
.def_163))))))))))))))))))))))))))))))))))))))))))))))))))))))))))))))))))))))))))))))))))))))))))))))))))))))))))))))))))))))))))))))) (state |.PC.0.next| |.PC.1.next| |.PC.2.next| |bit__9$main.next| |i__8$main.next| |__RET__$main.next| |__INLINE_TEMP__0$main.next| |cond__11$main.next| |x__2$main.next| |y__4$main.next| |c__6$main.next|))))
(assert (forall ((|.PC.0.next| Bool) (|.PC.1.next| Bool) (|.PC.2.next| Bool) (|c__6$main| (_ BitVec 8)) (|c__6$main.next| (_ BitVec 8)) (|x__2$main| (_ BitVec 8)) (|i__8$main.next| (_ BitVec 8)) (|bit__9$main.next| (_ BitVec 8)) (|y__4$main| (_ BitVec 8)) (|y__4$main.next| (_ BitVec 8)) (|__RET__$main.next| (_ BitVec 32)) (|__RET__$main| (_ BitVec 32)) (|x__2$main.next| (_ BitVec 8)) (|__INLINE_TEMP__0$main.next| (_ BitVec 32)) (|__INLINE_TEMP__0$main| (_ BitVec 32)) (|cond__11$main.next| (_ BitVec 32)) (|cond__11$main| (_ BitVec 32)) (|i__8$main| (_ BitVec 8)) (|bit__9$main| (_ BitVec 8)) (|.PC.2| Bool) (|.PC.1| Bool) (|.PC.0| Bool)) (=> (state |.PC.0| |.PC.1| |.PC.2| |bit__9$main| |i__8$main| |__RET__$main| |__INLINE_TEMP__0$main| |cond__11$main| |x__2$main| |y__4$main| |c__6$main|) (let ((.def_12 (not .PC.1)))
(let ((.def_149 (and .PC.0 .def_12)))
(let ((.def_161 (and .PC.2 .def_149)))
(let ((.def_164 (not .def_161)))
.def_164)))))))
(check-sat)
